Welcome to the CBC MILP Solver
Version: Devel (unstable)
Build Date: Feb  6 2022
command line - -import /home/danilo/psp-janniele/J30/j3034/j3034_4.lp -timeM elapsed -seconds 10800 -solve -quit (default strategy 1)
seconds was changed from 1e+08 to 10800
Continuous objective value is 11.7758 - 0.208186 seconds
Cgl0003I 3 fixed, 0 tightened bounds, 8 strengthened rows, 0 substitutions
Cgl0003I 0 fixed, 0 tightened bounds, 8 strengthened rows, 0 substitutions
Cgl0003I 6 fixed, 0 tightened bounds, 8 strengthened rows, 0 substitutions
Cgl0003I 8 fixed, 0 tightened bounds, 4 strengthened rows, 0 substitutions
Cgl0003I 0 fixed, 0 tightened bounds, 6 strengthened rows, 0 substitutions
Cgl0003I 1 fixed, 0 tightened bounds, 8 strengthened rows, 0 substitutions
Cgl0003I 0 fixed, 0 tightened bounds, 4 strengthened rows, 0 substitutions
Cgl0003I 4 fixed, 0 tightened bounds, 8 strengthened rows, 0 substitutions
Cgl0003I 0 fixed, 0 tightened bounds, 3 strengthened rows, 0 substitutions
Cgl0003I 0 fixed, 0 tightened bounds, 8 strengthened rows, 0 substitutions
Cgl0003I 0 fixed, 0 tightened bounds, 8 strengthened rows, 0 substitutions
Cgl0003I 0 fixed, 0 tightened bounds, 8 strengthened rows, 0 substitutions
Cgl0003I 0 fixed, 0 tightened bounds, 8 strengthened rows, 0 substitutions
Cgl0003I 0 fixed, 0 tightened bounds, 8 strengthened rows, 0 substitutions
Cgl0004I processed model has 347 rows, 1410 columns (1410 integer (1409 of which binary)) and 17301 elements
Coin3009W Conflict graph built in 0.113 seconds, density: 0.863%
Cgl0015I Clique Strengthening extended 0 cliques, 0 were dominated
Cbc0045I Cutoff increment increased from 0.0001 to 0.9999
Cbc0045I 1 integer variables out of 1410 objects (1410 integer) have cost of 1 - high priority
Cbc0045I branch on satisfied Y create fake objective Y random cost Y
Cbc0038I Initial state - 79 integers unsatisfied sum - 20.0071
Cbc0038I Pass   1: suminf.    8.47922 (41) obj. 15 iterations 167
Cbc0038I Pass   2: suminf.    8.38575 (44) obj. 15 iterations 16
Cbc0038I Pass   3: suminf.    8.96748 (40) obj. 15 iterations 61
Cbc0038I Pass   4: suminf.    7.78175 (44) obj. 15 iterations 46
Cbc0038I Pass   5: suminf.    7.49597 (42) obj. 15 iterations 10
Cbc0038I Pass   6: suminf.   11.03845 (39) obj. 15 iterations 74
Cbc0038I Pass   7: suminf.    6.49893 (32) obj. 15 iterations 52
Cbc0038I Pass   8: suminf.    6.15024 (31) obj. 15 iterations 18
Cbc0038I Pass   9: suminf.    6.71965 (29) obj. 15 iterations 29
Cbc0038I Pass  10: suminf.    6.55266 (32) obj. 15 iterations 14
Cbc0038I Pass  11: suminf.    6.59579 (32) obj. 15 iterations 32
Cbc0038I Pass  12: suminf.    6.03485 (31) obj. 15 iterations 19
Cbc0038I Pass  13: suminf.    6.38632 (27) obj. 15 iterations 36
Cbc0038I Pass  14: suminf.    6.21933 (30) obj. 15 iterations 14
Cbc0038I Pass  15: suminf.    8.73432 (29) obj. 15 iterations 61
Cbc0038I Pass  16: suminf.    6.76230 (30) obj. 15 iterations 60
Cbc0038I Pass  17: suminf.    6.51196 (30) obj. 15 iterations 6
Cbc0038I Pass  18: suminf.    9.61021 (34) obj. 15 iterations 100
Cbc0038I Pass  19: suminf.    6.96500 (33) obj. 15 iterations 67
Cbc0038I Pass  20: suminf.    6.90666 (33) obj. 15 iterations 11
Cbc0038I Pass  21: suminf.    6.98290 (25) obj. 15 iterations 79
Cbc0038I Pass  22: suminf.    5.96502 (31) obj. 15 iterations 48
Cbc0038I Pass  23: suminf.    5.89836 (31) obj. 15 iterations 3
Cbc0038I Pass  24: suminf.    6.42121 (25) obj. 15 iterations 45
Cbc0038I Pass  25: suminf.    5.94728 (31) obj. 15 iterations 46
Cbc0038I Pass  26: suminf.    8.79603 (33) obj. 15 iterations 70
Cbc0038I Pass  27: suminf.    6.28788 (27) obj. 15 iterations 76
Cbc0038I Pass  28: suminf.    6.22004 (31) obj. 15 iterations 5
Cbc0038I Pass  29: suminf.    7.53242 (29) obj. 15 iterations 73
Cbc0038I Pass  30: suminf.   14.44135 (60) obj. 15 iterations 158
Cbc0038I Pass  31: suminf.   10.92367 (48) obj. 15 iterations 109
Cbc0038I Pass  32: suminf.   10.92367 (49) obj. 15 iterations 7
Cbc0038I Pass  33: suminf.   10.37230 (55) obj. 15 iterations 82
Cbc0038I Pass  34: suminf.    9.25730 (59) obj. 15 iterations 35
Cbc0038I Pass  35: suminf.    9.19621 (59) obj. 15 iterations 26
Cbc0038I Pass  36: suminf.    8.70864 (42) obj. 15 iterations 61
Cbc0038I Pass  37: suminf.    8.57078 (42) obj. 15 iterations 19
Cbc0038I Pass  38: suminf.   12.32622 (47) obj. 15 iterations 104
Cbc0038I Pass  39: suminf.   10.72360 (42) obj. 15 iterations 60
Cbc0038I Pass  40: suminf.   10.34795 (42) obj. 15 iterations 5
Cbc0038I Pass  41: suminf.   13.27658 (48) obj. 15 iterations 88
Cbc0038I Pass  42: suminf.    9.86043 (47) obj. 15 iterations 80
Cbc0038I Pass  43: suminf.    9.31855 (46) obj. 15 iterations 20
Cbc0038I Pass  44: suminf.   11.32020 (44) obj. 15 iterations 62
Cbc0038I Pass  45: suminf.    9.03934 (46) obj. 15 iterations 79
Cbc0038I Pass  46: suminf.    8.46714 (46) obj. 15 iterations 14
Cbc0038I Pass  47: suminf.    9.26761 (44) obj. 15 iterations 32
Cbc0038I Pass  48: suminf.   19.12407 (75) obj. 15 iterations 144
Cbc0038I Pass  49: suminf.    8.71378 (51) obj. 15 iterations 142
Cbc0038I Pass  50: suminf.    7.49501 (50) obj. 15 iterations 27
Cbc0038I Pass  51: suminf.    9.57449 (47) obj. 15 iterations 38
Cbc0038I Pass  52: suminf.    8.27152 (46) obj. 15 iterations 50
Cbc0038I Pass  53: suminf.   10.01736 (41) obj. 15 iterations 52
Cbc0038I Pass  54: suminf.    7.92289 (38) obj. 15 iterations 47
Cbc0038I Pass  55: suminf.    7.75863 (37) obj. 15 iterations 6
Cbc0038I Pass  56: suminf.    7.75863 (38) obj. 15 iterations 11
Cbc0038I Pass  57: suminf.    8.69378 (39) obj. 15 iterations 30
Cbc0038I Pass  58: suminf.    8.45711 (39) obj. 15 iterations 19
Cbc0038I Pass  59: suminf.   11.09979 (40) obj. 15 iterations 72
Cbc0038I Pass  60: suminf.    9.59332 (43) obj. 15 iterations 40
Cbc0038I Pass  61: suminf.    9.39332 (43) obj. 15 iterations 8
Cbc0038I Pass  62: suminf.    9.25999 (43) obj. 15 iterations 3
Cbc0038I Pass  63: suminf.   11.22333 (39) obj. 15 iterations 48
Cbc0038I Pass  64: suminf.   10.07293 (45) obj. 15 iterations 35
Cbc0038I Pass  65: suminf.    9.96536 (40) obj. 15 iterations 16
Cbc0038I Pass  66: suminf.    9.24925 (41) obj. 15 iterations 57
Cbc0038I Pass  67: suminf.    8.19112 (38) obj. 15 iterations 43
Cbc0038I Pass  68: suminf.    9.10001 (39) obj. 15 iterations 19
Cbc0038I Pass  69: suminf.    8.44411 (39) obj. 15 iterations 13
Cbc0038I Pass  70: suminf.    8.00045 (50) obj. 15 iterations 23
Cbc0038I Pass  71: suminf.    9.31169 (41) obj. 15 iterations 47
Cbc0038I Pass  72: suminf.    7.76846 (46) obj. 15 iterations 59
Cbc0038I Pass  73: suminf.    8.87978 (45) obj. 15 iterations 42
Cbc0038I Pass  74: suminf.    7.82215 (48) obj. 15 iterations 37
Cbc0038I Pass  75: suminf.   10.38496 (49) obj. 15 iterations 75
Cbc0038I Pass  76: suminf.    8.68822 (38) obj. 15 iterations 53
Cbc0038I Pass  77: suminf.    8.37296 (38) obj. 15 iterations 18
Cbc0038I Pass  78: suminf.    9.18793 (45) obj. 15 iterations 61
Cbc0038I Pass  79: suminf.    8.35868 (47) obj. 15 iterations 33
Cbc0038I Pass  80: suminf.    8.02907 (48) obj. 15 iterations 28
Cbc0038I Pass  81: suminf.    9.15237 (46) obj. 15 iterations 54
Cbc0038I Pass  82: suminf.    8.67482 (46) obj. 15 iterations 25
Cbc0038I Pass  83: suminf.    8.31459 (46) obj. 15 iterations 32
Cbc0038I Pass  84: suminf.    8.18126 (46) obj. 15 iterations 3
Cbc0038I Pass  85: suminf.    9.31548 (48) obj. 15 iterations 65
Cbc0038I Pass  86: suminf.    8.08304 (37) obj. 15 iterations 48
Cbc0038I Pass  87: suminf.    7.79625 (46) obj. 15 iterations 13
Cbc0038I Pass  88: suminf.    8.21636 (42) obj. 15 iterations 51
Cbc0038I Pass  89: suminf.    7.66702 (45) obj. 15 iterations 41
Cbc0038I Pass  90: suminf.   10.05712 (45) obj. 15 iterations 87
Cbc0038I Pass  91: suminf.    7.99947 (45) obj. 15 iterations 61
Cbc0038I Pass  92: suminf.    7.99186 (46) obj. 15 iterations 7
Cbc0038I Pass  93: suminf.   10.47158 (48) obj. 15 iterations 90
Cbc0038I Pass  94: suminf.    8.22340 (45) obj. 15 iterations 56
Cbc0038I Pass  95: suminf.    7.99018 (40) obj. 15 iterations 24
Cbc0038I Pass  96: suminf.   10.12858 (45) obj. 15 iterations 67
Cbc0038I Pass  97: suminf.    8.16266 (45) obj. 15 iterations 51
Cbc0038I Pass  98: suminf.    8.14655 (41) obj. 15 iterations 3
Cbc0038I Pass  99: suminf.   10.03053 (46) obj. 15 iterations 66
Cbc0038I Pass 100: suminf.   18.49191 (67) obj. 15 iterations 171
Cbc0038I No solution found this major pass
Cbc0038I Before mini branch and bound, 1075 integers at bound fixed and 0 continuous
Cbc0038I Mini branch and bound did not improve solution (3.89 seconds)
Cbc0038I After 3.89 seconds - Feasibility pump exiting - took 1.24 seconds
Cbc0031I 60 added rows had average density of 81.8
Cbc0013I At root node, 60 cuts changed objective from 11.775782 to 13 in 10 passes
Cbc0014I Cut generator 0 (Probing) - 203 row cuts average 9.6 elements, 17 column cuts (17 active)  in 1.314 seconds - new frequency is 1
Cbc0014I Cut generator 1 (Gomory) - 39 row cuts average 217.7 elements, 0 column cuts (0 active)  in 0.465 seconds - new frequency is -100
Cbc0014I Cut generator 2 (Knapsack) - 4 row cuts average 16.2 elements, 0 column cuts (0 active)  in 0.103 seconds - new frequency is -100
Cbc0014I Cut generator 3 (Clique) - 6 row cuts average 9.7 elements, 0 column cuts (0 active)  in 0.018 seconds - new frequency is -100
Cbc0014I Cut generator 4 (OddWheel) - 0 row cuts average 0.0 elements, 0 column cuts (0 active)  in 0.088 seconds - new frequency is -100
Cbc0014I Cut generator 5 (MixedIntegerRounding2) - 275 row cuts average 91.2 elements, 0 column cuts (0 active)  in 0.134 seconds - new frequency is 1
Cbc0014I Cut generator 6 (FlowCover) - 0 row cuts average 0.0 elements, 0 column cuts (0 active)  in 0.006 seconds - new frequency is -100
Cbc0014I Cut generator 7 (TwoMirCuts) - 280 row cuts average 174.8 elements, 0 column cuts (0 active)  in 0.324 seconds - new frequency is 1
Cbc0014I Cut generator 8 (ZeroHalf) - 139 row cuts average 97.2 elements, 0 column cuts (0 active)  in 0.132 seconds - new frequency is 1
Cbc0010I After 0 nodes, 1 on tree, 1e+50 best solution, best possible 13 (8.42 seconds)
Cbc0010I After 2 nodes, 3 on tree, 1e+50 best solution, best possible 13 (9.31 seconds)
Cbc0010I After 5 nodes, 6 on tree, 1e+50 best solution, best possible 13 (10.37 seconds)
Cbc0010I After 9 nodes, 9 on tree, 1e+50 best solution, best possible 13 (11.26 seconds)
Cbc0010I After 14 nodes, 7 on tree, 1e+50 best solution, best possible 13 (11.99 seconds)
Cbc0010I After 18 nodes, 7 on tree, 1e+50 best solution, best possible 13 (12.72 seconds)
Cbc0010I After 21 nodes, 5 on tree, 1e+50 best solution, best possible 13 (13.50 seconds)
Cbc0010I After 24 nodes, 3 on tree, 1e+50 best solution, best possible 13 (14.45 seconds)
Cbc0010I After 29 nodes, 1 on tree, 1e+50 best solution, best possible 13 (15.16 seconds)
Cbc0010I After 31 nodes, 2 on tree, 1e+50 best solution, best possible 14 (16.17 seconds)
Cbc0010I After 34 nodes, 5 on tree, 1e+50 best solution, best possible 14 (16.89 seconds)
Cbc0010I After 39 nodes, 6 on tree, 1e+50 best solution, best possible 14 (17.66 seconds)
Cbc0010I After 44 nodes, 9 on tree, 1e+50 best solution, best possible 14 (18.47 seconds)
Cbc0010I After 49 nodes, 13 on tree, 1e+50 best solution, best possible 14 (19.21 seconds)
Cbc0010I After 57 nodes, 17 on tree, 1e+50 best solution, best possible 14 (19.91 seconds)
Cbc0010I After 67 nodes, 15 on tree, 1e+50 best solution, best possible 14 (20.61 seconds)
Cbc0010I After 74 nodes, 15 on tree, 1e+50 best solution, best possible 14 (21.32 seconds)
Cbc0010I After 80 nodes, 18 on tree, 1e+50 best solution, best possible 14 (22.03 seconds)
Cbc0010I After 90 nodes, 15 on tree, 1e+50 best solution, best possible 14 (22.80 seconds)
Cbc0010I After 95 nodes, 14 on tree, 1e+50 best solution, best possible 14 (23.51 seconds)
Cbc0010I After 101 nodes, 14 on tree, 1e+50 best solution, best possible 14 (24.22 seconds)
Cbc0010I After 107 nodes, 14 on tree, 1e+50 best solution, best possible 14 (24.93 seconds)
Cbc0010I After 115 nodes, 15 on tree, 1e+50 best solution, best possible 14 (25.63 seconds)
Cbc0010I After 125 nodes, 14 on tree, 1e+50 best solution, best possible 14 (26.34 seconds)
Cbc0010I After 130 nodes, 14 on tree, 1e+50 best solution, best possible 14 (27.04 seconds)
Cbc0010I After 137 nodes, 13 on tree, 1e+50 best solution, best possible 14 (27.78 seconds)
Cbc0010I After 144 nodes, 15 on tree, 1e+50 best solution, best possible 14 (28.54 seconds)
Cbc0010I After 153 nodes, 14 on tree, 1e+50 best solution, best possible 14 (29.34 seconds)
Cbc0010I After 161 nodes, 15 on tree, 1e+50 best solution, best possible 14 (30.12 seconds)
Cbc0010I After 168 nodes, 18 on tree, 1e+50 best solution, best possible 14 (30.82 seconds)
Cbc0010I After 177 nodes, 19 on tree, 1e+50 best solution, best possible 14 (31.53 seconds)
Cbc0010I After 184 nodes, 19 on tree, 1e+50 best solution, best possible 14 (32.24 seconds)
Cbc0010I After 196 nodes, 18 on tree, 1e+50 best solution, best possible 14 (32.94 seconds)
Cbc0010I After 207 nodes, 18 on tree, 1e+50 best solution, best possible 14 (33.66 seconds)
Cbc0010I After 222 nodes, 16 on tree, 1e+50 best solution, best possible 14 (34.38 seconds)
Cbc0010I After 233 nodes, 12 on tree, 1e+50 best solution, best possible 14 (35.13 seconds)
Cbc0010I After 238 nodes, 14 on tree, 1e+50 best solution, best possible 14 (35.86 seconds)
Cbc0010I After 245 nodes, 14 on tree, 1e+50 best solution, best possible 14 (36.61 seconds)
Cbc0010I After 254 nodes, 13 on tree, 1e+50 best solution, best possible 14 (37.34 seconds)
Cbc0010I After 262 nodes, 12 on tree, 1e+50 best solution, best possible 14 (38.20 seconds)
Cbc0010I After 267 nodes, 13 on tree, 1e+50 best solution, best possible 14 (39.01 seconds)
Cbc0010I After 275 nodes, 15 on tree, 1e+50 best solution, best possible 14 (39.75 seconds)
Cbc0010I After 281 nodes, 16 on tree, 1e+50 best solution, best possible 14 (40.59 seconds)
Cbc0010I After 288 nodes, 16 on tree, 1e+50 best solution, best possible 14 (41.34 seconds)
Cbc0010I After 295 nodes, 18 on tree, 1e+50 best solution, best possible 14 (42.09 seconds)
Cbc0010I After 304 nodes, 15 on tree, 1e+50 best solution, best possible 14 (42.87 seconds)
Cbc0010I After 311 nodes, 17 on tree, 1e+50 best solution, best possible 14 (43.58 seconds)
Cbc0010I After 320 nodes, 15 on tree, 1e+50 best solution, best possible 14 (44.38 seconds)
Cbc0010I After 334 nodes, 14 on tree, 1e+50 best solution, best possible 14 (45.24 seconds)
Cbc0010I After 341 nodes, 12 on tree, 1e+50 best solution, best possible 14 (45.99 seconds)
Cbc0010I After 345 nodes, 15 on tree, 1e+50 best solution, best possible 14 (46.73 seconds)
Cbc0010I After 354 nodes, 12 on tree, 1e+50 best solution, best possible 14 (47.45 seconds)
Cbc0010I After 363 nodes, 14 on tree, 1e+50 best solution, best possible 14 (48.29 seconds)
Cbc0010I After 370 nodes, 19 on tree, 1e+50 best solution, best possible 14 (49.03 seconds)
Cbc0010I After 381 nodes, 23 on tree, 1e+50 best solution, best possible 14 (49.75 seconds)
Cbc0010I After 392 nodes, 22 on tree, 1e+50 best solution, best possible 14 (50.50 seconds)
Cbc0010I After 400 nodes, 20 on tree, 1e+50 best solution, best possible 14 (51.23 seconds)
Cbc0010I After 410 nodes, 17 on tree, 1e+50 best solution, best possible 14 (52.00 seconds)
Cbc0010I After 417 nodes, 15 on tree, 1e+50 best solution, best possible 14 (52.72 seconds)
Cbc0010I After 427 nodes, 15 on tree, 1e+50 best solution, best possible 14 (53.50 seconds)
Cbc0010I After 439 nodes, 13 on tree, 1e+50 best solution, best possible 14 (54.21 seconds)
Cbc0010I After 446 nodes, 15 on tree, 1e+50 best solution, best possible 14 (54.93 seconds)
Cbc0010I After 456 nodes, 18 on tree, 1e+50 best solution, best possible 14 (55.63 seconds)
Cbc0010I After 470 nodes, 16 on tree, 1e+50 best solution, best possible 14 (56.43 seconds)
Cbc0010I After 478 nodes, 19 on tree, 1e+50 best solution, best possible 14 (57.14 seconds)
Cbc0010I After 489 nodes, 18 on tree, 1e+50 best solution, best possible 14 (57.90 seconds)
Cbc0010I After 501 nodes, 15 on tree, 1e+50 best solution, best possible 14 (58.68 seconds)
Cbc0010I After 511 nodes, 13 on tree, 1e+50 best solution, best possible 14 (59.39 seconds)
Cbc0010I After 521 nodes, 10 on tree, 1e+50 best solution, best possible 14 (60.10 seconds)
Cbc0010I After 528 nodes, 14 on tree, 1e+50 best solution, best possible 14 (60.84 seconds)
Cbc0010I After 540 nodes, 17 on tree, 1e+50 best solution, best possible 14 (61.58 seconds)
Cbc0010I After 550 nodes, 14 on tree, 1e+50 best solution, best possible 14 (62.31 seconds)
Cbc0010I After 560 nodes, 12 on tree, 1e+50 best solution, best possible 14 (63.01 seconds)
Cbc0010I After 572 nodes, 9 on tree, 1e+50 best solution, best possible 14 (63.72 seconds)
Cbc0010I After 578 nodes, 13 on tree, 1e+50 best solution, best possible 14 (64.53 seconds)
Cbc0010I After 587 nodes, 12 on tree, 1e+50 best solution, best possible 14 (65.27 seconds)
Cbc0010I After 593 nodes, 8 on tree, 1e+50 best solution, best possible 14 (65.99 seconds)
Cbc0010I After 600 nodes, 11 on tree, 1e+50 best solution, best possible 14 (66.70 seconds)
Cbc0010I After 610 nodes, 10 on tree, 1e+50 best solution, best possible 14 (67.43 seconds)
Cbc0010I After 621 nodes, 10 on tree, 1e+50 best solution, best possible 14 (68.22 seconds)
Cbc0010I After 628 nodes, 13 on tree, 1e+50 best solution, best possible 14 (68.95 seconds)
Cbc0010I After 636 nodes, 12 on tree, 1e+50 best solution, best possible 14 (69.72 seconds)
Cbc0010I After 645 nodes, 16 on tree, 1e+50 best solution, best possible 14 (70.43 seconds)
Cbc0010I After 653 nodes, 10 on tree, 1e+50 best solution, best possible 14 (71.16 seconds)
Cbc0010I After 661 nodes, 9 on tree, 1e+50 best solution, best possible 14 (71.88 seconds)
Cbc0010I After 667 nodes, 9 on tree, 1e+50 best solution, best possible 14 (72.62 seconds)
Cbc0010I After 673 nodes, 10 on tree, 1e+50 best solution, best possible 14 (73.38 seconds)
Cbc0010I After 680 nodes, 10 on tree, 1e+50 best solution, best possible 14 (74.10 seconds)
Cbc0010I After 689 nodes, 9 on tree, 1e+50 best solution, best possible 14 (74.82 seconds)
Cbc0010I After 697 nodes, 6 on tree, 1e+50 best solution, best possible 14 (75.66 seconds)
Cbc0010I After 703 nodes, 8 on tree, 1e+50 best solution, best possible 14 (76.48 seconds)
Cbc0010I After 709 nodes, 9 on tree, 1e+50 best solution, best possible 14 (77.28 seconds)
Cbc0010I After 717 nodes, 6 on tree, 1e+50 best solution, best possible 14 (78.09 seconds)
Cbc0010I After 724 nodes, 8 on tree, 1e+50 best solution, best possible 14 (78.82 seconds)
Cbc0010I After 731 nodes, 9 on tree, 1e+50 best solution, best possible 14 (79.63 seconds)
Cbc0010I After 737 nodes, 12 on tree, 1e+50 best solution, best possible 14 (80.41 seconds)
Cbc0010I After 747 nodes, 10 on tree, 1e+50 best solution, best possible 14 (81.19 seconds)
Cbc0010I After 753 nodes, 11 on tree, 1e+50 best solution, best possible 14 (82.01 seconds)
Cbc0010I After 762 nodes, 12 on tree, 1e+50 best solution, best possible 14 (82.84 seconds)
Cbc0010I After 770 nodes, 11 on tree, 1e+50 best solution, best possible 14 (83.72 seconds)
Cbc0010I After 778 nodes, 12 on tree, 1e+50 best solution, best possible 14 (84.43 seconds)
Cbc0010I After 784 nodes, 14 on tree, 1e+50 best solution, best possible 14 (85.18 seconds)
Cbc0010I After 793 nodes, 13 on tree, 1e+50 best solution, best possible 14 (85.91 seconds)
Cbc0010I After 800 nodes, 15 on tree, 1e+50 best solution, best possible 14 (86.72 seconds)
Cbc0010I After 809 nodes, 13 on tree, 1e+50 best solution, best possible 14 (87.45 seconds)
Cbc0010I After 819 nodes, 13 on tree, 1e+50 best solution, best possible 14 (88.16 seconds)
Cbc0010I After 829 nodes, 14 on tree, 1e+50 best solution, best possible 14 (89.06 seconds)
Cbc0010I After 836 nodes, 15 on tree, 1e+50 best solution, best possible 14 (89.77 seconds)
Cbc0010I After 842 nodes, 16 on tree, 1e+50 best solution, best possible 14 (90.51 seconds)
Cbc0010I After 851 nodes, 15 on tree, 1e+50 best solution, best possible 14 (91.38 seconds)
Cbc0010I After 858 nodes, 15 on tree, 1e+50 best solution, best possible 14 (92.11 seconds)
Cbc0010I After 867 nodes, 13 on tree, 1e+50 best solution, best possible 14 (92.93 seconds)
Cbc0010I After 876 nodes, 15 on tree, 1e+50 best solution, best possible 14 (93.69 seconds)
Cbc0010I After 885 nodes, 12 on tree, 1e+50 best solution, best possible 14 (94.41 seconds)
Cbc0010I After 893 nodes, 12 on tree, 1e+50 best solution, best possible 14 (95.21 seconds)
Cbc0010I After 902 nodes, 10 on tree, 1e+50 best solution, best possible 14 (96.09 seconds)
Cbc0010I After 909 nodes, 11 on tree, 1e+50 best solution, best possible 14 (96.82 seconds)
Cbc0010I After 914 nodes, 12 on tree, 1e+50 best solution, best possible 14 (97.55 seconds)
Cbc0010I After 922 nodes, 14 on tree, 1e+50 best solution, best possible 14 (98.27 seconds)
Cbc0010I After 929 nodes, 14 on tree, 1e+50 best solution, best possible 14 (99.07 seconds)
Cbc0010I After 938 nodes, 14 on tree, 1e+50 best solution, best possible 14 (99.80 seconds)
Cbc0010I After 947 nodes, 11 on tree, 1e+50 best solution, best possible 14 (100.57 seconds)
Cbc0010I After 956 nodes, 12 on tree, 1e+50 best solution, best possible 14 (101.34 seconds)
Cbc0010I After 966 nodes, 12 on tree, 1e+50 best solution, best possible 14 (102.05 seconds)
Cbc0010I After 975 nodes, 9 on tree, 1e+50 best solution, best possible 14 (102.75 seconds)
Cbc0010I After 982 nodes, 8 on tree, 1e+50 best solution, best possible 14 (103.46 seconds)
Cbc0010I After 989 nodes, 8 on tree, 1e+50 best solution, best possible 14 (104.31 seconds)
Cbc0010I After 995 nodes, 9 on tree, 1e+50 best solution, best possible 14 (105.02 seconds)
Cbc0010I After 1001 nodes, 9 on tree, 1e+50 best solution, best possible 14 (105.85 seconds)
Cbc0010I After 1005 nodes, 12 on tree, 1e+50 best solution, best possible 14 (106.66 seconds)
Cbc0010I After 1013 nodes, 18 on tree, 1e+50 best solution, best possible 14 (107.36 seconds)
Cbc0010I After 1020 nodes, 24 on tree, 1e+50 best solution, best possible 14 (108.14 seconds)
Cbc0010I After 1027 nodes, 19 on tree, 1e+50 best solution, best possible 14 (108.84 seconds)
Cbc0010I After 1037 nodes, 16 on tree, 1e+50 best solution, best possible 14 (109.55 seconds)
Cbc0010I After 1043 nodes, 13 on tree, 1e+50 best solution, best possible 14 (110.26 seconds)
Cbc0010I After 1048 nodes, 14 on tree, 1e+50 best solution, best possible 14 (111.00 seconds)
Cbc0010I After 1057 nodes, 11 on tree, 1e+50 best solution, best possible 14 (111.70 seconds)
Cbc0010I After 1064 nodes, 15 on tree, 1e+50 best solution, best possible 14 (112.47 seconds)
Cbc0010I After 1076 nodes, 10 on tree, 1e+50 best solution, best possible 14 (113.26 seconds)
Cbc0010I After 1084 nodes, 6 on tree, 1e+50 best solution, best possible 14 (114.01 seconds)
Cbc0010I After 1090 nodes, 11 on tree, 1e+50 best solution, best possible 14 (114.73 seconds)
Cbc0010I After 1096 nodes, 15 on tree, 1e+50 best solution, best possible 14 (115.50 seconds)
Cbc0010I After 1103 nodes, 12 on tree, 1e+50 best solution, best possible 14 (116.33 seconds)
Cbc0010I After 1108 nodes, 11 on tree, 1e+50 best solution, best possible 14 (117.11 seconds)
Cbc0010I After 1115 nodes, 7 on tree, 1e+50 best solution, best possible 14 (117.88 seconds)
Cbc0010I After 1122 nodes, 6 on tree, 1e+50 best solution, best possible 14 (118.62 seconds)
Cbc0010I After 1129 nodes, 7 on tree, 1e+50 best solution, best possible 14 (119.43 seconds)
Cbc0010I After 1135 nodes, 6 on tree, 1e+50 best solution, best possible 14 (120.24 seconds)
Cbc0010I After 1144 nodes, 7 on tree, 1e+50 best solution, best possible 14 (121.03 seconds)
Cbc0010I After 1149 nodes, 12 on tree, 1e+50 best solution, best possible 14 (121.77 seconds)
Cbc0010I After 1155 nodes, 18 on tree, 1e+50 best solution, best possible 14 (122.53 seconds)
Cbc0010I After 1161 nodes, 24 on tree, 1e+50 best solution, best possible 14 (123.33 seconds)
Cbc0010I After 1170 nodes, 21 on tree, 1e+50 best solution, best possible 14 (124.15 seconds)
Cbc0010I After 1177 nodes, 18 on tree, 1e+50 best solution, best possible 14 (124.89 seconds)
Cbc0010I After 1185 nodes, 13 on tree, 1e+50 best solution, best possible 14 (125.60 seconds)
Cbc0010I After 1189 nodes, 9 on tree, 1e+50 best solution, best possible 14 (126.38 seconds)
Cbc0010I After 1192 nodes, 9 on tree, 1e+50 best solution, best possible 14 (127.12 seconds)
Cbc0010I After 1198 nodes, 8 on tree, 1e+50 best solution, best possible 14 (128.00 seconds)
Cbc0010I After 1203 nodes, 6 on tree, 1e+50 best solution, best possible 14 (128.71 seconds)
Cbc0010I After 1208 nodes, 11 on tree, 1e+50 best solution, best possible 14 (129.45 seconds)
Cbc0010I After 1215 nodes, 7 on tree, 1e+50 best solution, best possible 14 (130.17 seconds)
Cbc0010I After 1219 nodes, 4 on tree, 1e+50 best solution, best possible 14 (130.98 seconds)
Cbc0010I After 1226 nodes, 2 on tree, 1e+50 best solution, best possible 14 (131.71 seconds)
Cbc0010I After 1231 nodes, 6 on tree, 1e+50 best solution, best possible 14 (132.47 seconds)
Cbc0010I After 1237 nodes, 10 on tree, 1e+50 best solution, best possible 14 (133.26 seconds)
Cbc0010I After 1243 nodes, 14 on tree, 1e+50 best solution, best possible 14 (133.97 seconds)
Cbc0010I After 1249 nodes, 18 on tree, 1e+50 best solution, best possible 14 (134.69 seconds)
Cbc0010I After 1257 nodes, 16 on tree, 1e+50 best solution, best possible 14 (135.43 seconds)
Cbc0010I After 1264 nodes, 14 on tree, 1e+50 best solution, best possible 14 (136.21 seconds)
Cbc0010I After 1272 nodes, 7 on tree, 1e+50 best solution, best possible 14 (137.01 seconds)
Cbc0010I After 1281 nodes, 2 on tree, 1e+50 best solution, best possible 15 (137.82 seconds)
Cbc0010I After 1287 nodes, 6 on tree, 1e+50 best solution, best possible 15 (138.63 seconds)
Cbc0010I After 1294 nodes, 9 on tree, 1e+50 best solution, best possible 15 (139.47 seconds)
Cbc0010I After 1299 nodes, 8 on tree, 1e+50 best solution, best possible 15 (140.17 seconds)
Cbc0010I After 1308 nodes, 15 on tree, 1e+50 best solution, best possible 15 (140.90 seconds)
Cbc0010I After 1316 nodes, 20 on tree, 1e+50 best solution, best possible 15 (141.71 seconds)
Cbc0010I After 1328 nodes, 14 on tree, 1e+50 best solution, best possible 15 (142.44 seconds)
Cbc0010I After 1338 nodes, 12 on tree, 1e+50 best solution, best possible 15 (143.16 seconds)
Cbc0010I After 1344 nodes, 9 on tree, 1e+50 best solution, best possible 15 (143.93 seconds)
Cbc0010I After 1352 nodes, 9 on tree, 1e+50 best solution, best possible 15 (144.71 seconds)
Cbc0010I After 1361 nodes, 13 on tree, 1e+50 best solution, best possible 15 (145.43 seconds)
Cbc0010I After 1373 nodes, 24 on tree, 1e+50 best solution, best possible 15 (146.18 seconds)
Cbc0010I After 1385 nodes, 20 on tree, 1e+50 best solution, best possible 15 (146.90 seconds)
Cbc0010I After 1401 nodes, 13 on tree, 1e+50 best solution, best possible 15 (147.61 seconds)
Cbc0010I After 1409 nodes, 18 on tree, 1e+50 best solution, best possible 15 (148.32 seconds)
Cbc0010I After 1418 nodes, 14 on tree, 1e+50 best solution, best possible 15 (149.06 seconds)
Cbc0010I After 1424 nodes, 17 on tree, 1e+50 best solution, best possible 15 (149.77 seconds)
Cbc0004I Integer solution of 15 found after 283960 iterations and 1433 nodes (150.18 seconds)
Cbc0001I Search completed - best objective 15, took 283960 iterations and 1433 nodes (150.18 seconds)
Cbc0032I Strong branching done 2832 times (24713 iterations), fathomed 4 nodes and fixed 3 variables
Cbc0035I Maximum depth 39, 0 variables fixed on reduced cost
Cuts at root node changed objective from 11.7758 to 13
Probing was tried 910 times and created 6550 cuts of which 0 were active after adding rounds of cuts (9.99786 seconds)
Gomory was tried 10 times and created 39 cuts of which 0 were active after adding rounds of cuts (0.464811 seconds)
Knapsack was tried 10 times and created 4 cuts of which 0 were active after adding rounds of cuts (0.103003 seconds)
Clique was tried 10 times and created 6 cuts of which 0 were active after adding rounds of cuts (0.017634 seconds)
OddWheel was tried 10 times and created 0 cuts of which 0 were active after adding rounds of cuts (0.08834 seconds)
MixedIntegerRounding2 was tried 899 times and created 13247 cuts of which 0 were active after adding rounds of cuts (10.0474 seconds)
FlowCover was tried 10 times and created 0 cuts of which 0 were active after adding rounds of cuts (0.006064 seconds)
TwoMirCuts was tried 899 times and created 2350 cuts of which 0 were active after adding rounds of cuts (2.65144 seconds)
ZeroHalf was tried 899 times and created 5783 cuts of which 0 were active after adding rounds of cuts (11.8709 seconds)

Result - Optimal solution found
Objective value:                15
Enumerated nodes:               1433
Total iterations:               283960
Time (CPU seconds):             150.132
Time (Wallclock seconds):       150.247
Total time (CPU seconds):       150.169   (Wallclock seconds):       150.285
